(declare-var A (Array Int Int))
(declare-var B (Array Int Int))
(declare-var I Int)
(declare-var N Int)
(declare-var A1 (Array Int Int))
(declare-var I1 Int)
(declare-var pc Int)
(declare-var Z Int)

(rule (=> (and (= I 0)
               (= pc 1))
          (inv A B I N pc)))

(rule (=> (and
           (inv A B I N pc)
           (= A1 (store A I (select B I)))
           (= I1 (+ I 1))
           (< I N)
           (= pc 1)
           (= pc1 1))
          (inv A1 B I1 N pc1)))

(rule (=> (and
           (inv A B I N pc)
           (= I1 0)
           (>= I N)
           (= pc 1)
           (= pc1 2))
          (inv A B I1 N pc1)))
(rule (=> (and
           (= I1 (+ I 1))
           (inv A B I N pc)
           (< I N)
           (= pc 2)
           (= pc1 2))
          (inv A B I1 N pc1)))

(rule (=> (and
           (inv A B I N pc)
           (= pc 2)
           (< Z N)
           (>= Z 0)
           (not (= (select A Z) (select B Z)))
           )
          fail))
